
param K :=
2953.047
;
 
param ProcV :=
1 51.25427
2 54.25427
3 57.25427
4 60.25427
;
 
param ProdV :=
1 40
2 43
3 46
4 49
;
 
param capacity :=
1 1000
2 1500
3 1500
4 1000
;
 
param cost :
1 2 3 4 :=
1
0
6
8
12
2
6
0
3
6
3
8
3
0
3
4
12
6
3
0
;
 
